20
5
2005005
0
0
69 47 20 97 82 
1
0
92 72 24 92 21 
2
0
45 12 71 96 82 
3
0
80 82 22 64 32 
4
0
97 84 99 37 84 
5
0
27 83 56 72 70 
6
0
69 7 77 7 83 
7
0
16 79 22 90 68 
8
0
69 79 84 6 5 
9
0
93 65 5 27 73 
10
0
58 81 86 23 89 
11
0
42 88 58 92 80 
12
0
67 56 92 40 33 
13
0
26 59 59 54 34 
14
0
84 86 8 18 69 
15
0
54 27 77 20 26 
16
0
87 49 78 51 1 
17
0
90 80 34 64 4 
18
0
30 91 79 90 48 
19
0
3 86 78 96 28 
